PROBLEM NAME: eil51_n19
KNAPSACK DATA TYPE: uncorrelated
DIMENSION: 19
NUMBER OF ITEMS: 18
CAPACITY OF KNAPSACK: 4914
MIN SPEED: 0.1
MAX SPEED: 1
RENTING RATIO: 6.73
EDGE_WEIGHT_TYPE: CEIL_2D
NODE_COORD_SECTION	(INDEX, X, Y):
1	37	52
2	49	49
3	52	64
4	52	33
5	51	21
6	36	16
7	52	41
8	27	23
9	16	57
10	7	38
11	43	67
12	58	48
13	37	69
14	62	63
15	32	22
16	45	35
17	10	17
18	5	64
19	30	15
ITEMS SECTION	(INDEX, PROFIT, WEIGHT, ASSIGNED NODE NUMBER):
1	928	539	13
2	848	454	11
3	813	354	3
4	790	280	14
5	773	586	12
6	682	337	2
7	652	486	7
8	488	354	16
9	477	851	4
10	393	17	5
11	364	139	6
12	353	938	19
13	264	58	15
14	245	675	8
15	242	954	17
16	234	355	10
17	225	696	18
18	111	936	9
